WARNING: for repeatability, setting FPU to use double precision
Reading from standard input... Use '--help' for help.
============================[ Problem Statistics ]=============================
|                                                                             |
|  Number of variables:          8000                                         |
|  Number of clauses:           67249                                         |
|  Parse time:                   0.01 s                                       |
|  Eliminated clauses:           0.01 Mb                                      |
|  Simplification time:          0.02 s                                       |
|                                                                             |
LBD Based Clause Deletion : 1
Rapid Deletion : 1
Almost Conflict : 1
Anti Exploration : 1
============================[ Search Statistics ]==============================
| Conflicts |          ORIGINAL         |          LEARNT          | Progress |
|           |    Vars  Clauses Literals |    Limit  Clauses Lit/Cl |          |
===============================================================================
===============================================================================
restarts              : 1
conflicts             : 5              (169 /sec)
decisions             : 88             (0.00 % random) (2969 /sec)
propagations          : 7537           (254250 /sec)
conflict literals     : 27             (0.00 % deleted)
actual reward         : 0.088793
Memory used           : 11.00 MB
CPU time              : 0.029644 s

UNSATISFIABLE
